
Gurobi 7.5.2 (linux64) logging started Sat Jun 23 16:32:51 2018

Changed value of parameter LogFile to result/ilp/simNo_7-n_100-m_40-s_7-minVAF_0.05-cov_2000-k_1-fn_0.15-fp_0.0001-na_0.15.ILP.gurobiSolverLog
   Prev: gurobi.log  Default: 
Changed value of parameter TimeLimit to 86400.0
   Prev: 1e+100  Min: 0.0  Max: 1e+100  Default: 1e+100
Optimize a model with 1265601 rows, 330440 columns and 3489120 nonzeros
Variable types: 0 continuous, 330440 integer (330440 binary)
Coefficient statistics:
  Matrix range     [8e-04, 2e+00]
  Objective range  [2e+00, 2e+01]
  Bounds range     [1e+00, 1e+00]
  RHS range        [8e-02, 2e+00]
Found heuristic solution: objective -4993.119612
Presolve removed 379337 rows and 223346 columns (presolve time = 6s) ...
Presolve removed 379697 rows and 223346 columns (presolve time = 10s) ...
Presolve removed 380579 rows and 223346 columns (presolve time = 15s) ...
Presolve removed 380579 rows and 223346 columns (presolve time = 20s) ...
Presolve removed 380579 rows and 223346 columns (presolve time = 25s) ...
Presolve removed 380579 rows and 223346 columns (presolve time = 30s) ...
Presolve removed 380579 rows and 223346 columns (presolve time = 37s) ...
Presolve removed 380579 rows and 223346 columns
Presolve time: 39.30s
Presolved: 885022 rows, 107094 columns, 2462087 nonzeros
Variable types: 0 continuous, 107094 integer (107094 binary)
Presolved: 107094 rows, 992116 columns, 2569181 nonzeros

Presolve removed 107094 rows and 992116 columns

Root simplex log...

Iteration    Objective       Primal Inf.    Dual Inf.      Time
       0    1.6471995e+01   0.000000e+00   3.755400e+04     49s
    5963   -7.8055347e+01   0.000000e+00   1.653000e+03     50s
    6138   -7.9359195e+01   0.000000e+00   0.000000e+00     51s
    6138   -7.9359195e+01   0.000000e+00   0.000000e+00     54s

Root relaxation: objective -7.935920e+01, 6138 iterations, 11.01 seconds
Total elapsed time = 66.00s
Total elapsed time = 74.33s
Total elapsed time = 81.72s

    Nodes    |    Current Node    |     Objective Bounds      |     Work
 Expl Unexpl |  Obj  Depth IntInf | Incumbent    BestBd   Gap | It/Node Time

     0     0  -79.35920    0  237 -4993.1196  -79.35920  98.4%     -   91s
H    0     0                     -89.6121130  -79.35920  11.4%     -   96s
     0     0  -80.95162    0  311  -89.61211  -80.95162  9.66%     -  110s
     0     0  -81.70980    0  293  -89.61211  -81.70980  8.82%     -  134s
     0     0  -81.88032    0  322  -89.61211  -81.88032  8.63%     -  150s
     0     0  -81.88032    0  321  -89.61211  -81.88032  8.63%     -  159s
     0     0  -82.19215    0  332  -89.61211  -82.19215  8.28%     -  170s
     0     0  -82.34161    0  305  -89.61211  -82.34161  8.11%     -  184s
     0     0  -83.31447    0  504  -89.61211  -83.31447  7.03%     -  196s
     0     0  -83.33349    0  506  -89.61211  -83.33349  7.01%     -  215s
     0     0  -83.39703    0  507  -89.61211  -83.39703  6.94%     -  223s
     0     0  -83.72520    0  320  -89.61211  -83.72520  6.57%     -  272s
     0     0  -83.72520    0  120  -89.61211  -83.72520  6.57%     -  623s
     0     0  -83.73159    0  154  -89.61211  -83.73159  6.56%     -  625s
     0     0  -84.68545    0  174  -89.61211  -84.68545  5.50%     -  626s
     0     0  -85.24794    0  146  -89.61211  -85.24794  4.87%     -  627s
     0     0  -85.24794    0  145  -89.61211  -85.24794  4.87%     -  627s
     0     0  -86.51156    0  163  -89.61211  -86.51156  3.46%     -  628s
     0     0  -86.52246    0  157  -89.61211  -86.52246  3.45%     -  629s
     0     0  -86.80871    0  118  -89.61211  -86.80871  3.13%     -  629s
     0     0  -86.84177    0  123  -89.61211  -86.84177  3.09%     -  630s
     0     0  -86.84177    0  128  -89.61211  -86.84177  3.09%     -  630s
     0     0  -86.87468    0  151  -89.61211  -86.87468  3.05%     -  631s
     0     0  -86.87468    0  151  -89.61211  -86.87468  3.05%     -  632s
     0     0  -87.28932    0  183  -89.61211  -87.28932  2.59%     -  632s
     0     0  -87.28932    0  184  -89.61211  -87.28932  2.59%     -  633s
     0     0  -87.61893    0  177  -89.61211  -87.61893  2.22%     -  633s
     0     0  -87.95183    0   96  -89.61211  -87.95183  1.85%     -  634s
     0     0  -87.95183    0   93  -89.61211  -87.95183  1.85%     -  634s
     0     0  -88.00209    0  148  -89.61211  -88.00209  1.80%     -  634s
     0     0  -88.15520    0  142  -89.61211  -88.15520  1.63%     -  635s
     0     0  -88.18326    0  191  -89.61211  -88.18326  1.59%     -  636s
     0     0  -88.18326    0  178  -89.61211  -88.18326  1.59%     -  636s
     0     0  -88.45728    0  113  -89.61211  -88.45728  1.29%     -  637s
     0     0  -88.45728    0  217  -89.61211  -88.45728  1.29%     -  640s
     0     0  -88.45728    0  221  -89.61211  -88.45728  1.29%     -  640s
     0     0  -88.45728    0  182  -89.61211  -88.45728  1.29%     -  640s
     0     0  -88.45728    0  189  -89.61211  -88.45728  1.29%     -  641s
     0     0  -88.97070    0  189  -89.61211  -88.97070  0.72%     -  641s
     0     0  -88.98637    0  192  -89.61211  -88.98637  0.70%     -  641s
     0     0  -89.01002    0  193  -89.61211  -89.01002  0.67%     -  641s
     0     0  -89.01520    0  192  -89.61211  -89.01520  0.67%     -  641s
     0     0  -89.01520    0  196  -89.61211  -89.01520  0.67%     -  641s
     0     0  -89.01520    0  196  -89.61211  -89.01520  0.67%     -  641s
     0     0  -89.01520    0  192  -89.61211  -89.01520  0.67%     -  641s
     0     0  -89.01520    0  192  -89.61211  -89.01520  0.67%     -  641s
     0     0  -89.01520    0   86  -89.61211  -89.01520  0.67%     -  642s
     0     0  -89.01520    0   86  -89.61211  -89.01520  0.67%     -  642s
     0     0  -89.01520    0   86  -89.61211  -89.01520  0.67%     -  642s
     0     0  -89.01520    0   86  -89.61211  -89.01520  0.67%     -  643s
     0     0  -89.01520    0   87  -89.61211  -89.01520  0.67%     -  643s
     0     0     cutoff    0       -89.61211  -89.61211  0.00%     -  643s

Cutting planes:
  Gomory: 8
  Zero half: 31

Explored 1 nodes (23601 simplex iterations) in 643.99 seconds
Thread count was 1 (of 80 available processors)

Solution count 4: -89.6121 -89.6121 -89.6121 -4993.12 

Optimal solution found (tolerance 1.00e-04)
Best objective -8.961211296529e+01, best bound -8.961211296529e+01, gap 0.0000%
